73
4
0 4 6 9 10 11 12 16 18 20 21 22 23 24 26 27 29 31 32 33 35 37 42 44 48 50 51 52 53 55 56 57 59 62 63 64 67 68 69 70 71
1 5 6 8 10 12 14 15 17 18 19 20 22 24 26 27 29 34 36 37 38 40 42 45 48 50 51 53 56 59 60 67 69 72
2 7 10 14 15 16 17 20 21 22 23 24 25 26 31 32 35 39 41 43 44 45 46 48 54 55 59 60 61 64 65 66 68 69 70 71 72
3 4 11 13 25 28 30 33 36 38 44 47 49 58 64 66
